
(set-option :produce-models true)
(set-option :inline-size-limit 10000)

(declare-const var0 String)

(push 1)
(assert (str.in.re var0 (re.* (re.range "\x01" "\xff"))))
(assert (str.in.re var0 (re.++ (re.*? re.allchar) (re.++ (re.++ (re.* (str.to.re " ")) (re.++ (str.to.re "=") (re.++ (re.* (str.to.re " ")) (re.++ (re.* (re.union (str.to.re "&") (re.union (str.to.re "q") (re.union (str.to.re "u") (re.union (str.to.re "o") (re.union (str.to.re "t") (str.to.re ";"))))))) (re.++ (str.to.re "c") (re.++ (str.to.re "i") (re.++ (str.to.re "d") (re.++ (re.* (str.to.re " ")) (re.++ (str.to.re ":") (re.++ (re.* (str.to.re " ")) ((_ re.capture 1) (re.+ (re.inter (re.diff (re.range "\x01" "\xff") (str.to.re "&")) (re.inter (re.diff (re.range "\x01" "\xff") (str.to.re "q")) (re.inter (re.diff (re.range "\x01" "\xff") (str.to.re "u")) (re.inter (re.diff (re.range "\x01" "\xff") (str.to.re "o")) (re.inter (re.diff (re.range "\x01" "\xff") (str.to.re "t")) (re.inter (re.diff (re.range "\x01" "\xff") (str.to.re ";")) (re.inter (re.diff (re.range "\x01" "\xff") (str.to.re "&")) (re.inter (re.diff (re.range "\x01" "\xff") (str.to.re "l")) (re.inter (re.diff (re.range "\x01" "\xff") (str.to.re "t")) (re.inter (re.diff (re.range "\x01" "\xff") (str.to.re ";")) (re.inter (re.diff (re.range "\x01" "\xff") (str.to.re "&")) (re.inter (re.diff (re.range "\x01" "\xff") (str.to.re "g")) (re.inter (re.diff (re.range "\x01" "\xff") (str.to.re "t")) (re.inter (re.diff (re.range "\x01" "\xff") (str.to.re ";")) (re.diff (re.range "\x01" "\xff") (str.to.re " ")))))))))))))))))))))))))))) re.all))))	; match!==null
(assert (not (str.in.re ((_ str.extract 1) var0 (re.++ (re.*? re.allchar) (re.++ (re.++ (re.* (str.to.re " ")) (re.++ (str.to.re "=") (re.++ (re.* (str.to.re " ")) (re.++ (re.* (re.union (str.to.re "&") (re.union (str.to.re "q") (re.union (str.to.re "u") (re.union (str.to.re "o") (re.union (str.to.re "t") (str.to.re ";"))))))) (re.++ (str.to.re "c") (re.++ (str.to.re "i") (re.++ (str.to.re "d") (re.++ (re.* (str.to.re " ")) (re.++ (str.to.re ":") (re.++ (re.* (str.to.re " ")) ((_ re.capture 1) (re.+ (re.inter (re.diff (re.range "\x01" "\xff") (str.to.re "&")) (re.inter (re.diff (re.range "\x01" "\xff") (str.to.re "q")) (re.inter (re.diff (re.range "\x01" "\xff") (str.to.re "u")) (re.inter (re.diff (re.range "\x01" "\xff") (str.to.re "o")) (re.inter (re.diff (re.range "\x01" "\xff") (str.to.re "t")) (re.inter (re.diff (re.range "\x01" "\xff") (str.to.re ";")) (re.inter (re.diff (re.range "\x01" "\xff") (str.to.re "&")) (re.inter (re.diff (re.range "\x01" "\xff") (str.to.re "l")) (re.inter (re.diff (re.range "\x01" "\xff") (str.to.re "t")) (re.inter (re.diff (re.range "\x01" "\xff") (str.to.re ";")) (re.inter (re.diff (re.range "\x01" "\xff") (str.to.re "&")) (re.inter (re.diff (re.range "\x01" "\xff") (str.to.re "g")) (re.inter (re.diff (re.range "\x01" "\xff") (str.to.re "t")) (re.inter (re.diff (re.range "\x01" "\xff") (str.to.re ";")) (re.diff (re.range "\x01" "\xff") (str.to.re " ")))))))))))))))))))))))))))) re.all))) (str.to.re "\x00"))))
;match[1]!==null
(assert (str.in.re ((_ str.extract 1) var0 (re.++ (re.*? re.allchar) (re.++ (re.++ (re.* (str.to.re " ")) (re.++ (str.to.re "=") (re.++ (re.* (str.to.re " ")) (re.++ (re.* (re.union (str.to.re "&") (re.union (str.to.re "q") (re.union (str.to.re "u") (re.union (str.to.re "o") (re.union (str.to.re "t") (str.to.re ";"))))))) (re.++ (str.to.re "c") (re.++ (str.to.re "i") (re.++ (str.to.re "d") (re.++ (re.* (str.to.re " ")) (re.++ (str.to.re ":") (re.++ (re.* (str.to.re " ")) ((_ re.capture 1) (re.+ (re.inter (re.diff (re.range "\x01" "\xff") (str.to.re "&")) (re.inter (re.diff (re.range "\x01" "\xff") (str.to.re "q")) (re.inter (re.diff (re.range "\x01" "\xff") (str.to.re "u")) (re.inter (re.diff (re.range "\x01" "\xff") (str.to.re "o")) (re.inter (re.diff (re.range "\x01" "\xff") (str.to.re "t")) (re.inter (re.diff (re.range "\x01" "\xff") (str.to.re ";")) (re.inter (re.diff (re.range "\x01" "\xff") (str.to.re "&")) (re.inter (re.diff (re.range "\x01" "\xff") (str.to.re "l")) (re.inter (re.diff (re.range "\x01" "\xff") (str.to.re "t")) (re.inter (re.diff (re.range "\x01" "\xff") (str.to.re ";")) (re.inter (re.diff (re.range "\x01" "\xff") (str.to.re "&")) (re.inter (re.diff (re.range "\x01" "\xff") (str.to.re "g")) (re.inter (re.diff (re.range "\x01" "\xff") (str.to.re "t")) (re.inter (re.diff (re.range "\x01" "\xff") (str.to.re ";")) (re.diff (re.range "\x01" "\xff") (str.to.re " ")))))))))))))))))))))))))))) re.all))) (re.++ re.all(re.+ (re.range "a" "z")) re.all) ))
;/[a-z]+/.test(match[1]) == true
(check-sat)
(get-model)
(pop 1)
(push 1)
(assert (str.in.re var0 (re.* (re.range "\x01" "\xff"))))
(assert (str.in.re var0 (re.++ (re.*? re.allchar) (re.++ (re.++ (re.* (str.to.re " ")) (re.++ (str.to.re "=") (re.++ (re.* (str.to.re " ")) (re.++ (re.* (re.union (str.to.re "&") (re.union (str.to.re "q") (re.union (str.to.re "u") (re.union (str.to.re "o") (re.union (str.to.re "t") (str.to.re ";"))))))) (re.++ (str.to.re "c") (re.++ (str.to.re "i") (re.++ (str.to.re "d") (re.++ (re.* (str.to.re " ")) (re.++ (str.to.re ":") (re.++ (re.* (str.to.re " ")) ((_ re.capture 1) (re.+ (re.inter (re.diff (re.range "\x01" "\xff") (str.to.re "&")) (re.inter (re.diff (re.range "\x01" "\xff") (str.to.re "q")) (re.inter (re.diff (re.range "\x01" "\xff") (str.to.re "u")) (re.inter (re.diff (re.range "\x01" "\xff") (str.to.re "o")) (re.inter (re.diff (re.range "\x01" "\xff") (str.to.re "t")) (re.inter (re.diff (re.range "\x01" "\xff") (str.to.re ";")) (re.inter (re.diff (re.range "\x01" "\xff") (str.to.re "&")) (re.inter (re.diff (re.range "\x01" "\xff") (str.to.re "l")) (re.inter (re.diff (re.range "\x01" "\xff") (str.to.re "t")) (re.inter (re.diff (re.range "\x01" "\xff") (str.to.re ";")) (re.inter (re.diff (re.range "\x01" "\xff") (str.to.re "&")) (re.inter (re.diff (re.range "\x01" "\xff") (str.to.re "g")) (re.inter (re.diff (re.range "\x01" "\xff") (str.to.re "t")) (re.inter (re.diff (re.range "\x01" "\xff") (str.to.re ";")) (re.diff (re.range "\x01" "\xff") (str.to.re " ")))))))))))))))))))))))))))) re.all))))	; match!==null
(assert (not (str.in.re ((_ str.extract 1) var0 (re.++ (re.*? re.allchar) (re.++ (re.++ (re.* (str.to.re " ")) (re.++ (str.to.re "=") (re.++ (re.* (str.to.re " ")) (re.++ (re.* (re.union (str.to.re "&") (re.union (str.to.re "q") (re.union (str.to.re "u") (re.union (str.to.re "o") (re.union (str.to.re "t") (str.to.re ";"))))))) (re.++ (str.to.re "c") (re.++ (str.to.re "i") (re.++ (str.to.re "d") (re.++ (re.* (str.to.re " ")) (re.++ (str.to.re ":") (re.++ (re.* (str.to.re " ")) ((_ re.capture 1) (re.+ (re.inter (re.diff (re.range "\x01" "\xff") (str.to.re "&")) (re.inter (re.diff (re.range "\x01" "\xff") (str.to.re "q")) (re.inter (re.diff (re.range "\x01" "\xff") (str.to.re "u")) (re.inter (re.diff (re.range "\x01" "\xff") (str.to.re "o")) (re.inter (re.diff (re.range "\x01" "\xff") (str.to.re "t")) (re.inter (re.diff (re.range "\x01" "\xff") (str.to.re ";")) (re.inter (re.diff (re.range "\x01" "\xff") (str.to.re "&")) (re.inter (re.diff (re.range "\x01" "\xff") (str.to.re "l")) (re.inter (re.diff (re.range "\x01" "\xff") (str.to.re "t")) (re.inter (re.diff (re.range "\x01" "\xff") (str.to.re ";")) (re.inter (re.diff (re.range "\x01" "\xff") (str.to.re "&")) (re.inter (re.diff (re.range "\x01" "\xff") (str.to.re "g")) (re.inter (re.diff (re.range "\x01" "\xff") (str.to.re "t")) (re.inter (re.diff (re.range "\x01" "\xff") (str.to.re ";")) (re.diff (re.range "\x01" "\xff") (str.to.re " ")))))))))))))))))))))))))))) re.all))) (str.to.re "\x00"))))	
;match[1]!==null
(assert (not (str.in.re ((_ str.extract 1) var0 (re.++ (re.*? re.allchar) (re.++ (re.++ (re.* (str.to.re " ")) (re.++ (str.to.re "=") (re.++ (re.* (str.to.re " ")) (re.++ (re.* (re.union (str.to.re "&") (re.union (str.to.re "q") (re.union (str.to.re "u") (re.union (str.to.re "o") (re.union (str.to.re "t") (str.to.re ";"))))))) (re.++ (str.to.re "c") (re.++ (str.to.re "i") (re.++ (str.to.re "d") (re.++ (re.* (str.to.re " ")) (re.++ (str.to.re ":") (re.++ (re.* (str.to.re " ")) ((_ re.capture 1) (re.+ (re.inter (re.diff (re.range "\x01" "\xff") (str.to.re "&")) (re.inter (re.diff (re.range "\x01" "\xff") (str.to.re "q")) (re.inter (re.diff (re.range "\x01" "\xff") (str.to.re "u")) (re.inter (re.diff (re.range "\x01" "\xff") (str.to.re "o")) (re.inter (re.diff (re.range "\x01" "\xff") (str.to.re "t")) (re.inter (re.diff (re.range "\x01" "\xff") (str.to.re ";")) (re.inter (re.diff (re.range "\x01" "\xff") (str.to.re "&")) (re.inter (re.diff (re.range "\x01" "\xff") (str.to.re "l")) (re.inter (re.diff (re.range "\x01" "\xff") (str.to.re "t")) (re.inter (re.diff (re.range "\x01" "\xff") (str.to.re ";")) (re.inter (re.diff (re.range "\x01" "\xff") (str.to.re "&")) (re.inter (re.diff (re.range "\x01" "\xff") (str.to.re "g")) (re.inter (re.diff (re.range "\x01" "\xff") (str.to.re "t")) (re.inter (re.diff (re.range "\x01" "\xff") (str.to.re ";")) (re.diff (re.range "\x01" "\xff") (str.to.re " ")))))))))))))))))))))))))))) re.all))) (re.++ re.all(re.+ (re.range "a" "z")) re.all) )))
;/[a-z]+/.test(match[1]) == false	
(check-sat)
(get-model)
(pop 1)
(push 1)
(assert (str.in.re var0 (re.* (re.range "\x01" "\xff"))))
(assert (str.in.re var0 (re.++ (re.*? re.allchar) (re.++ (re.++ (re.* (str.to.re " ")) (re.++ (str.to.re "=") (re.++ (re.* (str.to.re " ")) (re.++ (re.* (re.union (str.to.re "&") (re.union (str.to.re "q") (re.union (str.to.re "u") (re.union (str.to.re "o") (re.union (str.to.re "t") (str.to.re ";"))))))) (re.++ (str.to.re "c") (re.++ (str.to.re "i") (re.++ (str.to.re "d") (re.++ (re.* (str.to.re " ")) (re.++ (str.to.re ":") (re.++ (re.* (str.to.re " ")) ((_ re.capture 1) (re.+ (re.inter (re.diff (re.range "\x01" "\xff") (str.to.re "&")) (re.inter (re.diff (re.range "\x01" "\xff") (str.to.re "q")) (re.inter (re.diff (re.range "\x01" "\xff") (str.to.re "u")) (re.inter (re.diff (re.range "\x01" "\xff") (str.to.re "o")) (re.inter (re.diff (re.range "\x01" "\xff") (str.to.re "t")) (re.inter (re.diff (re.range "\x01" "\xff") (str.to.re ";")) (re.inter (re.diff (re.range "\x01" "\xff") (str.to.re "&")) (re.inter (re.diff (re.range "\x01" "\xff") (str.to.re "l")) (re.inter (re.diff (re.range "\x01" "\xff") (str.to.re "t")) (re.inter (re.diff (re.range "\x01" "\xff") (str.to.re ";")) (re.inter (re.diff (re.range "\x01" "\xff") (str.to.re "&")) (re.inter (re.diff (re.range "\x01" "\xff") (str.to.re "g")) (re.inter (re.diff (re.range "\x01" "\xff") (str.to.re "t")) (re.inter (re.diff (re.range "\x01" "\xff") (str.to.re ";")) (re.diff (re.range "\x01" "\xff") (str.to.re " ")))))))))))))))))))))))))))) re.all))))	; match!==null
(assert (str.in.re ((_ str.extract 1) var0 (re.++ (re.*? re.allchar) (re.++ (re.++ (re.* (str.to.re " ")) (re.++ (str.to.re "=") (re.++ (re.* (str.to.re " ")) (re.++ (re.* (re.union (str.to.re "&") (re.union (str.to.re "q") (re.union (str.to.re "u") (re.union (str.to.re "o") (re.union (str.to.re "t") (str.to.re ";"))))))) (re.++ (str.to.re "c") (re.++ (str.to.re "i") (re.++ (str.to.re "d") (re.++ (re.* (str.to.re " ")) (re.++ (str.to.re ":") (re.++ (re.* (str.to.re " ")) ((_ re.capture 1) (re.+ (re.inter (re.diff (re.range "\x01" "\xff") (str.to.re "&")) (re.inter (re.diff (re.range "\x01" "\xff") (str.to.re "q")) (re.inter (re.diff (re.range "\x01" "\xff") (str.to.re "u")) (re.inter (re.diff (re.range "\x01" "\xff") (str.to.re "o")) (re.inter (re.diff (re.range "\x01" "\xff") (str.to.re "t")) (re.inter (re.diff (re.range "\x01" "\xff") (str.to.re ";")) (re.inter (re.diff (re.range "\x01" "\xff") (str.to.re "&")) (re.inter (re.diff (re.range "\x01" "\xff") (str.to.re "l")) (re.inter (re.diff (re.range "\x01" "\xff") (str.to.re "t")) (re.inter (re.diff (re.range "\x01" "\xff") (str.to.re ";")) (re.inter (re.diff (re.range "\x01" "\xff") (str.to.re "&")) (re.inter (re.diff (re.range "\x01" "\xff") (str.to.re "g")) (re.inter (re.diff (re.range "\x01" "\xff") (str.to.re "t")) (re.inter (re.diff (re.range "\x01" "\xff") (str.to.re ";")) (re.diff (re.range "\x01" "\xff") (str.to.re " ")))))))))))))))))))))))))))) re.all))) (str.to.re "\x00")))
;match[1]==null
(check-sat)
(get-model)
(pop 1)
(push 1)
(assert (str.in.re var0 (re.* (re.range "\x01" "\xff"))))
(assert (not (str.in.re var0 (re.++ (re.*? re.allchar) (re.++ (re.++ (re.* (str.to.re " ")) (re.++ (str.to.re "=") (re.++ (re.* (str.to.re " ")) (re.++ (re.* (re.union (str.to.re "&") (re.union (str.to.re "q") (re.union (str.to.re "u") (re.union (str.to.re "o") (re.union (str.to.re "t") (str.to.re ";"))))))) (re.++ (str.to.re "c") (re.++ (str.to.re "i") (re.++ (str.to.re "d") (re.++ (re.* (str.to.re " ")) (re.++ (str.to.re ":") (re.++ (re.* (str.to.re " ")) ((_ re.capture 1) (re.+ (re.inter (re.diff (re.range "\x01" "\xff") (str.to.re "&")) (re.inter (re.diff (re.range "\x01" "\xff") (str.to.re "q")) (re.inter (re.diff (re.range "\x01" "\xff") (str.to.re "u")) (re.inter (re.diff (re.range "\x01" "\xff") (str.to.re "o")) (re.inter (re.diff (re.range "\x01" "\xff") (str.to.re "t")) (re.inter (re.diff (re.range "\x01" "\xff") (str.to.re ";")) (re.inter (re.diff (re.range "\x01" "\xff") (str.to.re "&")) (re.inter (re.diff (re.range "\x01" "\xff") (str.to.re "l")) (re.inter (re.diff (re.range "\x01" "\xff") (str.to.re "t")) (re.inter (re.diff (re.range "\x01" "\xff") (str.to.re ";")) (re.inter (re.diff (re.range "\x01" "\xff") (str.to.re "&")) (re.inter (re.diff (re.range "\x01" "\xff") (str.to.re "g")) (re.inter (re.diff (re.range "\x01" "\xff") (str.to.re "t")) (re.inter (re.diff (re.range "\x01" "\xff") (str.to.re ";")) (re.diff (re.range "\x01" "\xff") (str.to.re " ")))))))))))))))))))))))))))) re.all)))))	; match == null
(check-sat)
(get-model)
(pop 1)
(exit)
